50
19268

480 551
381 709
562 423
64 39
358 333
889 985
108 335
7 296
306 882
590 195
593 550
809 14
963 942
179 300
771 513
988 242
569 674
106 926
748 464
287 872
604 375
170 103
808 724
763 662
558 904
429 652
208 205
606 813
980 208
433 676
45 973
249 96
717 986
325 526
321 980
227 221
404 607
34 857
340 263
996 195
274 594
986 769
195 508
153 696
290 59
554 827
966 892
76 448
831 671
251 781
